GLPSOL: GLPK LP/MIP Solver, v4.55
Parameter(s) specified in the command line:
 -m tmp.mod
Reading model section from tmp.mod...
Reading data section from tmp.mod...
7323 lines were read
Generating obj...
Generating kirhoff...
Generating init_charge...
Generating batt_size...
Model has been successfully generated
GLPK Simplex Optimizer, v4.55
5231 rows, 12076 columns, 24668 non-zeros
Preprocessing...
4996 rows, 11940 columns, 24430 non-zeros
Scaling...
 A: min|aij| =  1.000e+00  max|aij| =  1.000e+00  ratio =  1.000e+00
Problem data seem to be well scaled
Constructing initial basis...
Size of triangular part is 4022
      0: obj =   0.000000000e+00  infeas =  2.097e+03 (974)
    500: obj =   3.800000000e+01  infeas =  1.449e+03 (634)
   1000: obj =   4.800000000e+01  infeas =  1.325e+03 (252)
   1500: obj =   1.065000000e+02  infeas =  1.021e+03 (148)
   2000: obj =   2.510000000e+02  infeas =  2.840e+02 (102)
*  2349: obj =   3.470000000e+02  infeas =  0.000e+00 (87)
*  2500: obj =   3.103333333e+02  infeas =  0.000e+00 (87)
*  3000: obj =   1.480000000e+02  infeas =  0.000e+00 (82)
*  3326: obj =   8.100000000e+01  infeas =  0.000e+00 (67)
OPTIMAL LP SOLUTION FOUND
Time used:   1.4 secs
Memory used: 22.6 Mb (23728268 bytes)
#OUTPUT:
81
-5 -8 0 0 0 -4 -10 -19 -11 -9 0 0 0 0 -1 -2 -1 -15 0 0 0 1 0 -7 0 -8 -3 -8 0 0 0 -8 0 -8 41 -1 -1 0 0 0 1 0 -1 -1 0 0 -2 0 0 1 0 0 0 3 0 0 0 0 -2 0 0 0 0 -2 0 -2 0 3 0 0 -4 1 6 0 0 0 1 0 -2 5 3 0 0 -2 0 0 3 0 -1 0 0 0 1 -4 0 0 -8 0 0 0 0 1 0 0 0 0 0 -8 0 0 0 0 0 0 0 1 0 3 0 3 0 0 -8 0 0 0 0 -1 0 0 0 0 0 3 0 -2 0 0 0 0 0 0 2 0 1 -10 0 0 0 0 0 0 0 0 -1 0 0 0 0 0 -1 -7 0 -2 0 0 -1 0 0 3 0 0 0 0 0 1 8 0 0 0 0 0 0 1 0 0 0 0 0 -1 -4 0 0 0 0 0 0 0 0 -1 -5 -2 -1 -9 0 0 2 0 0 0 0 0 0 0 -4 0 0 0 0 0 0 0 0 0 -2 0 0 0 0 0 0 -20 0 0 0 0 0 0 0 0 0 0 -3 0 0 0 0 0 0 0 0 0 0 0 -2 0 0 0 -3 0 0 0 0 0 0 0 0 0 0 0 0 -23 0 0 0 0 0 -4 -2 0 0 0 0 0 -5 0 0 0 0 0 0 0 0 0 0 0 0 0 0 0 0 0 0 0 0 0 0 0 0 0 0 0 0 0 -1 -2 0 0 0 0 0 0 0 0 0 0 0 0 0 0 0 0 0 0 0 0 0 -2 0 0 0 0 -2 0 0 0 0 0 0 0 0 0 0 0 0 0 0 0 0 0 0 0 0 0 0 0 0 0 0 16 0 0 0 0 0 0 0 0 0 0 0 0 3 -1 0 0 0 0 0 0 0 0 0 8 0 0 0 0 0 0 0 0 0 0 0 0 0 0 -9 0 0 0 0 0 0 0 0 0 -3 0 0 0 -2 0 0 0 0 0 0 0 0 -9 0 0 0 0 0 0 0 0 0 0 0 0 0 0 0 0 0 2 0 0 0 0 -8 0 0 0 0 0 0 0 0 0 0 0 0 0 0 0 0 0 0 0 0 0 0 0 0 0 0 0 0 0 0 -5 0 0 0 0 0 0 0 0 0 0 0 0 0 0 0 0 0 0 0 0 0 0 0 0 0 -3 0 -10 0 0 0 0 0 0 0 0 0 0 0 0 0 0 0 0 0 0 0 0 0 0 0 0 0 0 0 0 -1 0 0 0 -1 0 0 0 0 0 -1 0 0 0 0 -6 -1 0 0 0 0 0 0 0 0 0 0 0 0 0 -33 -1 0 -9 -3 0 0 1 0 0 0 0 -2 -2 0 0 0 1 5 2 1 2 0 1 0 3 0 2 -4 0 0 0 0 1 0 0 0 0 0 0 0 0 0 4 0 1 0 0 0 0 -3 3 0 0 0 0 0 0 2 -7 0 0 0 0 0 0 0 0 0 7 0 -16 0 0 0 0 0 0 -9 1 0 0 0 0 19 0 0 1 -1 3 2 0 0 0 2 7 0 0 0 0 0 0 0 0 0 -2 0 8 0 0 0 0 0 0 0 5 0 0 0 0 0 3 10 0 0 0 0 0 0 0 1 0 0 0 0 0 1 0 0 0 1 -1 6 1 0 0 0 0 -23 0 0 0 0 0 
-7 -32 0 -7 0 0 -10 -29 -29 -25 0 -1 0 -3 0 0 0 -7 1 0 -1 -2 0 -7 -5 0 18 0 0 0 0 0 0 0 81 0 -1 2 0 -5 -16 0 1 0 -30 -5 0 3 0 0 2 0 0 -8 0 0 0 -30 -2 0 0 0 0 0 0 0 0 0 0 0 0 -8 0 51 0 0 0 0 -7 -2 0 0 0 0 0 0 0 0 0 0 0 0 -16 8 0 0 0 4 0 0 0 0 1 0 0 2 0 0 0 0 -1 0 0 0 0 1 0 0 0 0 1 -2 8 0 0 0 0 0 0 0 0 -13 0 0 0 -3 0 0 0 0 0 0 -2 -9 0 0 0 0 0 0 0 0 0 0 0 0 0 0 0 0 0 -4 0 0 0 0 0 0 0 0 -58 0 0 0 0 0 -8 0 0 0 0 0 0 0 0 0 0 0 0 0 0 0 0 0 0 0 0 0 0 0 5 0 0 -16 0 0 0 0 0 0 0 0 0 0 0 0 0 0 0 0 0 0 1 0 -5 0 0 0 0 0 0 0 0 0 0 0 0 51 0 0 0 0 0 0 2 -4 -67 0 0 0 0 0 2 0 2 0 0 0 0 0 0 0 0 0 0 0 0 0 0 0 0 0 0 0 0 0 0 0 2 0 0 -1 0 -4 0 0 0 0 0 0 0 0 0 2 3 0 0 0 0 0 0 0 0 0 0 0 0 0 0 0 0 0 0 0 0 0 0 0 0 0 15 0 0 0 0 0 0 0 0 0 0 0 0 0 0 0 0 0 0 0 0 0 0 15 0 0 0 0 0 -16 0 0 0 0 0 0 0 0 0 0 0 0 0 0 -2 0 0 0 8 38 0 0 0 0 0 2 0 0 4 0 0 0 0 -1 0 0 -51 0 0 0 0 0 0 6 0 0 0 0 0 0 0 0 0 0 0 0 0 0 -9 0 0 0 -2 0 0 0 0 0 0 -51 0 0 0 0 0 0 0 0 0 0 0 -7 0 0 0 0 0 0 0 0 0 0 0 0 0 0 0 2 0 -2 0 0 0 0 8 0 0 0 0 0 0 0 0 0 0 -4 0 0 0 0 0 0 0 0 0 0 0 -8 0 0 0 0 0 0 0 -10 0 0 0 0 0 0 0 0 0 0 0 0 0 0 0 0 0 0 0 0 0 0 0 0 0 0 0 0 0 0 0 0 0 0 0 0 -1 0 0 0 0 0 0 0 0 0 0 0 0 51 -3 0 0 0 0 0 18 0 0 0 -1 0 0 -13 0 0 -1 0 0 0 0 0 0 0 0 -1 0 0 0 0 0 0 0 0 0 2 -89 0 2 10 0 0 0 -4 0 -3 0 0 0 0 12 5 0 0 0 0 0 0 0 0 0 0 0 9 0 0 -2 0 0 0 0 0 -4 4 2 0 -1 1 0 3 -3 0 0 0 -2 0 0 0 0 0 0 0 0 0 0 -9 1 0 16 0 0 0 0 0 0 9 0 -38 0 -2 0 -4 0 0 -7 1 0 0 0 0 9 0 0 0 0 0 0 0 0 0 0 7 0 0 0 0 0 0 0 0 0 2 0 -8 0 4 0 0 0 0 8 10 0 0 0 0 0 0 0 0 0 0 0 1 0 0 0 0 0 0 -51 3 -16 0 -2 13 1 -1 0 0 1 0 0 0 2 0 0 0 0 0 
3 0 0 8 0 0 -10 -16 -15 -6 -4 1 0 0 0 0 -5 0 0 0 3 -6 0 0 0 -1 -4 -1 0 0 0 0 0 -2 60 0 0 0 0 -8 1 0 -1 0 10 0 -3 0 0 0 0 0 0 0 0 0 0 10 2 0 0 0 0 0 0 -2 0 0 0 0 3 0 0 44 0 0 0 0 0 5 0 0 0 -4 0 0 0 0 1 0 -3 0 1 0 0 0 0 -3 0 1 0 -5 0 0 5 0 0 0 0 0 -9 0 0 0 0 0 0 3 -2 3 0 -5 0 0 0 0 0 0 0 0 -4 -9 0 0 0 0 0 0 0 0 0 0 2 -4 0 0 3 0 0 0 0 0 0 0 0 0 0 4 0 0 1 -4 0 -4 0 -4 1 0 0 3 -58 0 0 0 0 0 0 0 2 0 0 0 0 0 0 0 0 0 0 0 0 0 0 0 0 0 0 0 0 0 -5 4 0 -1 0 0 0 0 0 0 0 0 -2 0 0 0 0 0 0 0 0 4 0 3 -5 0 0 0 0 0 0 0 0 0 0 0 0 40 0 -2 0 0 0 0 0 0 -39 0 -3 0 0 0 0 0 2 0 0 0 0 0 0 0 0 0 0 0 0 4 0 0 0 0 0 0 0 0 0 0 2 0 0 -1 0 0 0 0 0 0 0 0 0 0 0 0 0 0 0 0 0 0 0 0 0 2 -4 0 0 0 0 0 0 0 0 0 0 0 -5 0 1 0 0 0 0 0 0 0 0 0 0 0 0 0 0 0 0 0 0 0 0 0 0 0 0 0 0 0 0 0 0 0 0 0 0 0 0 0 0 0 0 0 0 0 0 0 3 0 0 0 0 30 0 0 0 0 0 4 0 0 0 0 0 0 0 0 0 0 -39 0 0 0 0 0 0 7 0 0 0 0 3 0 0 0 0 0 0 0 0 0 0 0 0 0 0 0 0 0 0 0 0 -39 0 0 0 0 0 0 0 0 0 0 -3 -7 0 0 3 0 0 0 0 2 0 0 0 3 -8 0 0 0 0 -2 0 0 0 0 0 0 0 0 0 0 0 0 0 0 0 0 0 0 0 0 0 0 3 0 0 0 0 0 0 0 0 0 0 0 0 -5 0 0 4 0 0 0 0 0 0 0 0 0 0 0 0 0 0 0 0 0 0 0 0 0 0 0 0 0 0 0 0 0 0 0 0 0 -4 0 0 0 0 0 0 0 0 0 0 0 0 39 0 0 0 0 0 0 -1 0 0 0 0 0 0 -9 0 0 0 1 0 0 0 0 0 0 0 0 0 0 0 0 0 0 0 0 0 0 -60 0 -5 -10 0 0 3 -4 0 0 0 0 0 0 0 4 0 0 0 0 0 -3 -1 0 0 3 0 9 0 2 0 0 0 0 0 0 1 4 0 3 -4 1 0 0 0 0 0 0 0 0 -3 1 4 0 5 0 0 0 0 0 0 0 0 0 0 0 0 0 0 1 0 -30 0 -2 0 0 0 0 -7 0 5 0 0 0 0 0 0 -1 1 0 0 0 0 3 3 4 0 -8 5 0 -2 0 0 -3 0 2 0 0 0 -3 3 0 -3 0 0 5 0 0 0 0 0 0 0 0 0 0 0 4 0 0 0 0 0 0 -39 0 1 0 0 9 -1 0 0 0 0 0 0 -4 0 0 0 0 0 0 
-5 0 0 -1 0 -4 7 -16 -14 -9 0 -1 0 0 0 2 0 -11 0 0 0 0 0 -1 2 -2 0 0 0 0 0 4 0 0 3 0 0 0 0 0 0 0 -1 1 0 0 0 -3 0 0 0 -4 -2 -1 -10 0 0 0 0 0 0 0 0 0 0 -1 0 -2 1 0 0 0 -2 0 0 0 -1 0 0 0 0 0 0 0 0 0 0 0 0 0 0 2 0 0 0 0 4 0 0 0 0 0 0 2 0 0 0 0 0 -2 0 0 0 0 0 -1 0 0 0 3 0 0 0 0 0 0 0 1 0 0 0 0 0 0 0 -5 0 0 0 0 -11 0 0 -8 0 0 0 0 0 2 0 0 0 0 0 0 0 0 -27 0 0 0 0 0 0 0 0 0 2 0 0 0 0 0 0 0 0 0 0 0 1 0 0 0 3 0 0 0 0 0 0 -1 0 0 0 0 0 0 0 1 0 0 0 0 0 0 0 0 0 0 0 0 0 0 -1 0 0 0 2 0 0 0 1 0 0 1 1 0 0 0 0 -6 1 0 0 0 0 0 0 0 0 0 0 0 0 0 0 0 0 0 0 0 6 0 0 0 0 0 0 0 1 -4 0 0 0 0 0 0 0 0 0 -6 0 0 0 0 0 0 0 0 0 0 0 2 -5 0 0 0 0 1 0 0 0 0 0 0 0 0 0 0 0 0 0 0 0 0 0 0 0 -28 0 0 0 0 0 0 0 0 0 0 0 0 0 0 0 0 0 0 0 0 0 0 0 0 0 0 0 2 0 0 0 0 0 0 0 0 0 0 0 0 0 0 0 0 0 0 0 0 0 0 0 0 0 0 4 0 0 0 1 0 0 0 0 0 1 0 0 0 -2 0 0 0 0 0 0 0 0 0 0 0 0 0 0 0 0 0 0 0 0 0 0 0 0 0 0 0 0 0 4 0 0 0 0 0 0 0 0 0 0 0 0 0 0 0 0 0 0 -2 0 0 0 0 0 0 0 0 0 0 0 0 0 0 0 0 0 0 0 0 0 0 0 1 -28 0 0 0 0 0 0 0 0 0 0 0 0 0 0 0 0 0 0 0 0 0 0 0 0 -1 0 0 0 0 0 0 0 0 0 0 0 0 0 1 0 0 0 0 0 0 0 0 0 0 0 0 0 0 0 0 0 0 0 0 0 0 0 0 0 0 0 -2 0 0 0 0 0 0 0 0 0 0 0 0 0 0 0 0 0 0 0 0 0 0 0 0 0 0 0 0 0 0 0 0 0 0 0 0 0 2 0 0 0 0 0 0 0 0 0 0 0 0 0 0 -3 1 0 0 0 0 0 -4 0 0 1 0 0 -14 0 8 0 0 -1 0 -1 0 0 0 -2 0 -2 0 -1 0 0 0 0 0 -1 0 4 0 6 0 0 0 0 -3 7 1 0 0 0 0 0 0 0 0 0 0 0 0 -2 4 1 0 0 0 0 0 0 0 0 -4 0 0 0 0 0 2 0 0 1 -1 0 0 0 0 -7 3 0 0 0 0 0 2 0 0 0 0 0 0 0 0 0 0 0 0 0 0 -1 0 0 0 0 0 0 0 1 0 0 0 -1 0 0 0 0 0 0 0 2 0 0 0 0 0 0 0 0 0 0 0 0 0 0 0 -2 0 0 0 0 0 0 0 0 0 0 0 
-7 0 0 -7 0 0 5 -48 -48 4 0 1 0 0 0 6 0 -8 0 0 0 2 0 7 0 0 0 0 0 -69 0 0 0 0 81 0 0 0 0 0 0 0 -1 0 30 0 0 0 0 0 0 4 0 0 0 0 0 30 -2 0 0 0 0 0 0 0 0 0 0 0 0 -3 0 0 0 0 0 0 -3 -4 0 -25 0 -4 0 0 0 0 0 0 0 0 0 0 4 0 0 0 0 0 0 0 -2 2 0 0 0 0 0 -2 9 0 0 0 0 0 -4 0 0 -3 0 2 8 0 0 0 0 1 0 0 0 0 0 0 0 1 0 0 0 0 0 0 -4 0 0 0 0 0 0 2 0 0 0 0 0 0 0 0 0 0 0 0 0 -4 0 0 0 0 -3 0 0 0 0 0 0 0 -16 0 0 0 0 0 0 0 -3 0 0 0 0 0 2 0 0 0 0 0 0 0 0 4 -5 0 0 0 0 0 0 6 0 0 0 0 0 0 0 0 0 7 0 0 0 0 0 0 0 -7 0 0 0 0 0 -6 0 0 0 0 0 0 0 0 0 0 0 0 0 0 0 0 0 0 0 0 6 0 0 0 0 0 0 0 0 4 7 0 0 0 0 0 0 0 4 -6 0 0 0 0 0 0 0 0 0 2 0 0 0 0 0 4 0 0 0 0 0 0 0 0 -4 0 -8 0 0 6 0 0 0 0 5 0 0 0 0 0 0 0 -3 0 0 4 0 0 0 0 0 0 -69 0 0 0 0 0 0 0 0 0 0 0 0 0 0 0 0 0 -3 0 0 0 0 0 0 0 0 0 0 0 0 0 0 0 0 65 0 0 0 0 -4 0 0 0 0 38 0 0 0 0 0 0 0 0 0 0 0 0 0 0 -4 0 0 0 0 0 0 0 0 0 0 0 0 0 0 0 0 0 0 0 0 0 0 0 -7 0 0 -100 0 0 0 0 0 0 0 0 0 0 0 0 0 0 0 -2 0 0 0 0 -4 0 0 0 0 0 1 0 0 0 0 0 -4 0 0 0 0 0 0 0 0 0 8 0 0 0 0 0 0 0 4 0 0 0 0 0 0 0 0 0 0 0 0 0 0 0 0 0 0 0 0 0 0 -5 0 0 0 0 0 0 0 0 0 0 0 0 0 0 0 0 0 0 0 0 0 0 0 0 0 0 0 0 0 0 0 0 0 3 0 0 0 0 0 0 0 0 0 7 0 0 0 0 0 0 0 0 0 0 0 0 0 0 0 0 0 0 0 0 0 0 0 0 0 0 0 0 -3 0 0 0 0 0 0 0 0 0 4 0 0 0 -97 0 -22 -1 0 0 0 -4 0 0 0 0 0 0 9 0 -4 0 -6 1 -4 0 0 0 -3 0 0 0 0 0 0 0 0 0 0 0 1 0 6 0 0 -2 0 0 4 -4 0 0 0 8 0 0 0 -5 0 0 0 0 0 -4 0 0 0 0 0 0 4 -69 0 4 0 -38 0 0 0 0 0 -1 0 0 5 0 0 0 10 -3 0 0 0 0 0 2 0 0 0 0 4 -5 5 -1 0 0 0 0 0 0 0 -8 0 0 0 0 0 0 0 5 0 0 0 0 0 0 0 0 0 0 -3 0 0 0 -4 0 0 0 0 0 0 0 0 0 0 0 0 3 0 -4 0 0 0 0 0 0 0 0 
-6 -3 0 -5 0 -1 0 0 0 0 0 0 0 -3 0 1 0 -51 0 0 0 0 0 0 0 0 0 0 0 0 0 1 0 0 -1 0 0 0 0 0 0 0 0 0 0 -3 -2 0 0 0 0 0 0 0 0 0 0 0 -2 0 0 0 0 -2 0 0 0 0 0 0 0 -1 0 0 0 0 1 0 0 0 0 0 0 0 0 0 0 0 0 0 0 0 0 0 0 0 1 0 0 0 0 0 0 0 0 0 0 0 0 -45 0 6 0 0 0 0 0 0 0 0 0 0 1 0 0 0 0 0 0 0 0 0 0 0 0 0 0 0 0 0 0 0 0 0 0 0 0 0 0 0 0 0 0 0 0 0 0 0 0 0 0 0 0 0 0 0 0 0 0 0 0 0 0 0 0 0 -1 0 0 0 0 0 0 0 0 0 0 0 0 0 -2 0 0 0 0 0 0 0 0 0 0 0 0 -3 0 0 0 0 0 0 0 0 0 0 0 0 0 0 0 0 0 0 0 0 0 0 0 0 0 0 0 -7 0 0 0 0 0 0 0 0 0 0 0 0 0 0 0 0 0 0 0 0 -2 0 0 0 0 0 0 0 0 0 0 0 0 0 0 0 0 0 0 0 0 0 0 0 0 0 0 0 0 0 -45 0 0 0 0 0 0 0 0 0 0 0 -3 0 0 0 0 0 0 0 0 0 0 0 0 0 0 0 0 0 0 0 0 0 0 0 0 0 0 0 0 0 0 0 0 0 0 0 0 0 0 0 0 0 0 0 0 0 0 0 0 0 0 0 0 0 0 0 0 0 0 0 0 0 0 0 0 0 0 0 0 0 0 0 0 0 0 0 0 0 0 0 0 0 0 0 0 0 0 0 0 0 0 0 0 0 0 0 0 0 0 0 0 0 0 0 0 0 0 0 0 0 0 0 0 0 0 0 0 0 -2 0 0 0 0 0 0 0 0 0 0 0 0 0 0 0 0 0 0 0 0 0 0 0 0 0 0 0 0 0 0 0 0 0 0 2 0 0 0 0 0 0 1 0 0 0 0 0 0 0 0 0 0 0 0 0 0 0 0 0 0 0 0 0 0 0 0 0 0 0 0 0 0 0 0 0 0 0 0 0 0 0 0 0 0 0 0 0 0 0 0 0 0 0 0 0 0 0 0 7 0 0 0 0 0 0 0 0 0 0 0 0 0 0 0 0 0 0 0 0 0 0 0 0 3 0 0 0 0 0 2 0 0 0 0 0 0 0 0 0 0 0 0 0 0 0 0 0 0 0 0 0 0 0 0 0 0 0 0 2 0 -1 0 0 0 0 0 -1 0 -3 0 0 0 0 0 0 0 0 2 0 0 0 0 0 0 0 0 0 0 0 0 0 0 0 0 0 0 0 -2 0 0 0 -15 0 0 0 0 0 0 0 0 0 0 0 0 0 0 0 0 0 0 0 0 0 0 0 0 0 0 0 0 0 0 0 0 0 0 0 0 0 0 0 0 0 0 0 0 0 0 0 0 0 0 0 0 0 0 0 0 0 0 0 0 0 0 0 0 -1 0 0 0 0 0 0 0 0 0 0 0 0 0 -7 0 0 0 0 0 0 0 0 0 0 0 0 0 -3 0 0 -2 0 0 0 0 0 0 0 0 0 -2 0 0 0 0 0 
-7 -5 0 -7 0 0 -10 -45 -38 -13 -25 -1 -23 0 0 -6 0 -61 0 0 6 -3 0 -7 0 -7 -1 -7 -2 0 0 -3 -15 -8 80 -4 0 0 0 0 -4 0 -1 0 -2 0 2 2 1 -4 0 0 0 -10 0 0 0 -2 -2 0 0 0 -4 2 0 -5 0 0 0 0 2 -4 -5 0 0 0 -1 0 0 0 0 0 5 0 0 0 0 0 0 0 0 0 -4 -4 0 0 -3 0 0 1 0 0 -2 2 0 0 0 -13 -9 -9 -20 0 0 0 0 -1 5 -2 0 -2 0 -1 8 -4 0 0 0 1 0 -5 -4 0 -2 0 0 -5 0 0 0 11 4 0 -6 -6 -1 -13 0 0 0 2 0 -2 0 0 0 0 -1 -4 0 1 0 -12 0 0 0 -4 0 0 -3 2 0 0 0 0 -1 0 -18 0 0 0 -40 -1 -3 0 -4 -2 0 0 0 -5 4 36 0 0 0 0 0 0 1 10 0 0 0 -1 0 0 0 0 0 0 0 0 -2 0 -14 0 0 0 0 0 0 1 1 0 0 -4 0 0 0 0 0 -38 -40 0 0 0 0 -1 0 5 0 -15 -3 0 0 -2 0 0 0 0 0 0 6 0 0 0 0 0 0 0 0 0 0 0 0 0 0 1 0 0 0 -38 0 0 0 0 0 7 0 6 1 0 -7 0 0 0 2 0 0 0 0 2 0 0 0 0 5 16 -10 0 0 2 0 0 0 0 0 0 2 0 0 -77 0 0 0 0 0 0 -1 0 0 -1 0 0 0 0 0 0 0 0 0 0 0 16 0 0 0 -2 0 0 0 0 -5 0 0 0 0 0 0 0 0 0 0 0 0 0 -1 0 0 0 0 0 0 0 1 0 0 0 10 0 0 0 0 3 0 0 0 0 0 0 0 0 3 0 5 0 0 0 0 0 0 0 0 1 0 0 0 0 0 0 0 -15 0 0 0 0 2 0 -6 0 0 0 12 0 0 2 0 0 -3 0 0 0 0 0 0 0 0 -2 0 0 0 -1 3 0 0 0 0 0 2 0 0 0 0 4 0 0 0 -1 0 0 0 0 0 0 8 0 0 0 0 0 0 0 0 0 0 0 0 0 0 0 0 0 0 0 0 0 0 -10 0 0 0 0 0 0 0 0 0 0 -5 0 0 4 0 0 0 0 0 0 0 0 0 0 0 0 2 0 0 0 0 0 0 0 0 -13 0 0 0 0 0 3 0 0 0 0 0 0 0 0 0 0 0 0 0 0 0 0 0 0 0 0 0 0 -8 0 0 0 0 0 0 0 0 0 0 1 0 0 0 5 0 0 0 -5 0 0 0 0 0 0 0 0 0 -1 -98 1 0 -4 0 -3 0 -4 -4 0 3 -2 0 -6 6 4 0 5 -6 -20 -2 0 0 0 3 2 0 0 -14 -5 0 0 0 0 2 -2 0 0 6 -2 -1 0 7 0 4 -4 0 -2 0 10 0 0 1 0 0 1 0 -16 2 -1 1 0 -3 0 0 1 0 0 0 0 0 0 -3 0 0 0 0 -2 0 -1 0 18 -3 -2 23 -4 0 -2 0 3 0 2 0 0 0 1 -3 0 0 -2 0 0 0 -4 0 0 0 -8 0 0 0 0 0 0 10 0 0 0 -4 -2 0 0 13 0 0 0 -3 0 0 0 0 0 0 0 0 0 -4 0 12 0 -1 0 -5 0 5 0 0 -4 -30 0 0 0 0 0 
-7 -4 0 -3 0 -4 -9 -8 -7 0 -7 -1 -5 0 -1 0 0 -34 0 0 0 -6 0 0 0 0 0 0 0 0 0 0 0 -1 20 0 -1 0 0 -4 0 0 0 0 0 0 0 0 0 -5 0 0 0 0 0 -1 0 0 -2 0 0 0 -6 0 0 -5 0 0 0 0 0 0 0 -4 0 0 -1 0 0 0 0 0 0 0 0 0 0 -1 0 0 0 4 0 0 0 0 0 0 0 1 0 0 0 0 0 0 0 0 0 -18 0 3 0 0 0 -1 0 0 -2 0 0 -6 0 -11 0 0 0 0 0 0 0 0 -2 0 0 0 0 0 1 0 0 0 0 -2 -1 0 0 0 0 0 0 0 0 0 0 0 -1 -45 0 0 0 0 0 0 0 0 0 0 0 0 0 0 0 0 -1 1 -1 0 0 0 0 -7 0 0 0 -2 0 0 0 -1 -2 0 0 0 0 0 0 0 0 4 0 0 0 -4 0 5 0 0 0 0 0 0 0 0 0 0 0 -7 3 0 0 -4 0 0 0 0 0 0 0 0 0 -12 0 0 0 0 0 0 0 -1 0 0 0 0 0 -2 0 -5 0 0 0 0 0 0 0 0 2 0 0 0 0 0 -7 0 0 0 0 -4 0 0 -6 0 0 0 0 0 0 0 0 0 0 0 -15 0 0 0 2 0 0 0 0 0 0 0 -3 0 0 0 -1 0 0 0 0 0 34 0 0 0 0 0 0 0 0 0 0 0 0 0 0 0 0 -10 0 0 0 0 0 0 0 0 0 0 0 0 0 0 0 0 -3 0 0 0 0 0 0 0 0 0 0 0 0 0 0 -6 0 0 -30 0 0 0 0 0 0 0 5 0 0 0 0 0 0 0 0 0 0 0 0 0 0 0 0 0 0 0 0 0 0 0 0 0 0 0 0 4 0 0 0 0 0 0 0 0 0 0 0 0 0 0 0 0 0 0 0 0 0 0 0 0 0 0 0 0 0 0 0 0 0 -3 0 0 0 -5 0 0 0 0 0 0 0 2 0 0 0 0 0 0 -3 0 0 0 0 0 0 0 0 0 0 0 0 0 0 0 0 0 0 0 0 0 0 0 0 0 0 0 0 0 0 0 0 0 0 0 0 0 0 0 0 0 -55 0 0 0 0 0 0 0 0 0 0 0 0 0 0 0 0 0 0 0 0 0 0 12 0 0 0 0 0 0 0 0 0 0 -6 0 0 0 0 0 0 -7 0 0 0 0 0 0 3 0 0 0 0 0 0 0 0 0 0 0 0 0 0 0 0 1 0 0 0 0 0 0 0 5 0 0 0 0 0 0 0 0 0 0 -21 1 0 0 0 1 0 0 0 0 0 0 0 0 0 0 1 0 0 4 -2 0 0 0 0 0 0 0 0 1 0 5 -2 0 0 0 0 0 0 0 -6 0 15 0 0 0 0 -2 0 1 0 0 -4 0 0 10 0 0 0 0 0 0 0 6 0 30 0 0 0 0 0 0 0 2 0 0 0 0 -3 -1 0 0 0 0 0 0 0 0 0 0 0 3 0 0 0 5 0 0 0 0 -2 0 0 0 3 0 0 0 0 0 0 0 0 0 0 0 0 0 0 0 0 -12 0 0 0 0 0 6 -1 1 7 0 0 0 0 -3 0 0 0 0 -1 0 0 0 -5 0 0 0 0 0 0 0 0 0 
#OUTPUT END
Model has been successfully processed
